sat
(
(define-fun S () String "aaaaaabbbbaaaaaabbbbaaaaabaaaabbbaa")
(define-fun J () String "")
(define-fun I () String "")
(define-fun R () String "")
(define-fun H () String "aaaaaabbbb")
(define-fun K () String "")
(define-fun G () String "")
(define-fun V () String "")
(define-fun N () String "")
(define-fun M () String "")
(define-fun P () String "")
)
